c read Graph
c width = 107
c time = 75 ms
c width = 11
c time = 126 ms
c width = 10
c time = 166 ms
c width = 9
c time = 234 ms
c width = 8
c time = 3651 ms
c width = 8
c time = 4895 ms
s td 111 9 120
b 1 1 2 16
b 2 2 3 16 17
b 3 13 14 29 30
b 4 3 16 17 31
b 5 13 29 30 45
b 6 76 91 92 107
b 7 90 104 105 119
b 8 76 92 107 108
b 9 90 104 118 119
b 10 3 4 17 18 31
b 11 4 5 17 18 19 31
b 12 5 6 17 18 19 20 31
b 13 6 7 17 18 19 20 21 31
b 14 7 8 17 18 19 20 21 22 31
b 15 8 17 18 19 20 21 22 31 32
b 16 8 18 19 20 21 22 31 32 33
b 17 8 19 20 21 22 31 32 33 34
b 18 8 20 21 22 31 32 33 34 35
b 19 8 21 22 31 32 33 34 35 36
b 20 8 22 31 32 33 34 35 36 46
b 21 8 22 32 33 34 35 36 46 47
b 22 8 22 33 34 35 36 46 47 48
b 23 8 22 34 35 36 46 47 48 49
b 24 8 22 35 36 46 47 48 49 50
b 25 8 22 36 46 47 48 49 50 61
b 26 8 22 36 47 48 49 50 61 62
b 27 8 22 36 48 49 50 61 62 63
b 28 8 22 36 49 50 61 62 63 64
b 29 8 22 36 50 61 62 63 64 76
b 30 8 22 36 50 62 63 64 76 77
b 31 8 22 36 50 63 64 76 77 78
b 32 8 22 36 50 64 76 77 78 92
b 33 8 22 36 50 64 76 78 92 108
b 34 8 22 36 50 64 78 92 93 108
b 35 8 22 36 50 64 78 79 93 108
b 36 8 22 36 50 64 65 79 93 108
b 37 8 22 36 50 51 65 79 93 108
b 38 8 22 36 37 51 65 79 93 108
b 39 8 22 23 37 51 65 79 93 108
b 40 8 9 23 37 51 65 79 93 108
b 41 9 23 37 51 65 79 93 94 108
b 42 9 23 37 51 65 79 80 94 108
b 43 9 23 37 51 65 66 80 94 108
b 44 9 23 37 51 52 66 80 94 108
b 45 9 23 37 38 52 66 80 94 108
b 46 9 23 24 38 52 66 80 94 108
b 47 9 24 38 52 66 80 94 108 109
b 48 9 24 38 52 66 80 94 95 109
b 49 9 24 38 52 66 80 81 95 109
b 50 9 24 38 52 66 67 81 95 109
b 51 9 24 38 52 53 67 81 95 109
b 52 9 24 38 39 53 67 81 95 109
b 53 9 24 25 39 53 67 81 95 109
b 54 9 25 39 53 67 81 95 109 110
b 55 9 25 39 53 67 81 95 96 110
b 56 9 25 39 53 67 81 82 96 110
b 57 9 25 39 53 67 68 82 96 110
b 58 9 25 39 53 54 68 82 96 110
b 59 9 25 39 40 54 68 82 96 110
b 60 9 25 40 54 68 82 96 110 111
b 61 9 25 40 54 68 82 96 97 111
b 62 9 25 40 54 68 82 83 97 111
b 63 9 25 40 54 68 69 83 97 111
b 64 9 25 40 54 55 69 83 97 111
b 65 9 25 40 41 55 69 83 97 111
b 66 9 25 41 55 69 83 97 111 112
b 67 9 25 41 55 69 83 97 98 112
b 68 9 25 41 55 69 83 84 98 112
b 69 9 25 41 55 69 70 84 98 112
b 70 9 25 41 55 56 70 84 98 112
b 71 9 25 41 56 70 84 98 112 113
b 72 9 25 41 56 70 84 98 99 113
b 73 9 25 41 56 70 84 85 99 113
b 74 9 25 41 56 70 71 85 99 113
b 75 9 25 41 56 57 71 85 99 113
b 76 9 25 41 57 71 85 99 113 114
b 77 9 25 41 57 71 85 99 100 114
b 78 9 25 41 57 71 85 86 100 114
b 79 9 25 41 57 71 86 100 114 115
b 80 9 25 41 57 71 86 100 101 115
b 81 9 25 41 57 71 86 87 101 115
b 82 9 25 41 57 71 73 87 101 115
b 83 9 25 41 57 73 87 101 115 116
b 84 9 25 41 57 73 87 101 116 117
b 85 9 25 41 57 73 87 101 103 117
b 86 9 25 41 57 73 87 89 103 117
b 87 9 25 41 57 73 89 90 103 117
b 88 9 25 41 57 73 74 89 90 117
b 89 9 25 41 57 60 73 74 90 117
b 90 9 13 25 27 41 57 60 73 74
b 91 13 27 41 57 58 60 73 74
b 92 13 27 41 42 57 58 60 74
b 93 13 27 28 42 58 60 74
b 94 13 28 42 44 58 60 74
b 95 13 28 44 45 60
b 96 13 28 29 44 45
b 97 44 58 59 60 74
b 98 28 42 43 44 58
b 99 9 11 13 25 27 41
b 100 9 10 11 25
b 101 11 25 26 27 41
b 102 11 12 13 27
b 103 57 71 72 73 87
b 104 73 87 88 89 103
b 105 89 90 103 117 118
b 106 89 90 103 104 118
b 107 60 74 75 90
b 108 87 101 102 103 117
b 109 105 119 120
b 110 91 106 107
b 111 14 15 30
1 2
2 4
3 111
3 5
4 10
5 96
6 110
6 8
7 109
7 9
8 33
9 106
10 11
11 12
12 13
13 14
14 15
15 16
16 17
17 18
18 19
19 20
20 21
21 22
22 23
23 24
24 25
25 26
26 27
27 28
28 29
29 30
30 31
31 32
32 33
33 34
34 35
35 36
36 37
37 38
38 39
39 40
40 41
41 42
42 43
43 44
44 45
45 46
46 47
47 48
48 49
49 50
50 51
51 52
52 53
53 54
54 55
55 56
56 57
57 58
58 59
59 60
60 61
61 62
62 63
63 64
64 65
65 66
66 67
67 68
68 69
69 70
70 71
71 72
72 73
73 74
74 75
75 76
76 77
77 78
78 79
79 80
80 81
81 82
82 103
82 83
83 84
84 85
85 108
85 86
86 104
86 87
87 105
87 88
88 89
89 90
89 107
90 91
90 99
91 92
92 93
93 94
94 95
94 97
94 98
95 96
99 100
99 101
99 102
105 106
